RST01
Position Depot: Random
Horizon for Depot: Small
Position of customers: Random
Distribution of the demand: Small
Width of time windows: Tight
Distribution of the service: Large

VEHICLE 
NUMBER 	 CAPACITY 
 8 	 	 90 
 
CUSTOMER
CUST NO. 	 XCOORD.  	 YCOORD. 	 DEMAND 	 READY TIME 	 DUE DATE 	 SERVICE TIME 
 0 	 	 89 	 	 970 	 	 0 	 	 0 	 	 2276 	 	 0 
  1 	 	 460 	 	 509 	 	 8 	 	 468 	 	 650 	 	 168 
  2 	 	 891 	 	 653 	 	 8 	 	 1480 	 	 1671 	 	 148 
  3 	 	 371 	 	 317 	 	 7 	 	 1749 	 	 1920 	 	 197 
  4 	 	 752 	 	 768 	 	 8 	 	 1173 	 	 1290 	 	 160 
  5 	 	 775 	 	 251 	 	 7 	 	 910 	 	 1093 	 	 168 
  6 	 	 570 	 	 438 	 	 7 	 	 598 	 	 788 	 	 105 
  7 	 	 336 	 	 394 	 	 10 	 	 1892 	 	 1969 	 	 109 
  8 	 	 126 	 	 988 	 	 8 	 	 1307 	 	 1429 	 	 149 
  9 	 	 64 	 	 377 	 	 6 	 	 1976 	 	 2042 	 	 110 
  10 	 	 463 	 	 373 	 	 7 	 	 1197 	 	 1277 	 	 196 
  11 	 	 393 	 	 818 	 	 5 	 	 810 	 	 978 	 	 192 
  12 	 	 991 	 	 486 	 	 5 	 	 1106 	 	 1247 	 	 131 
  13 	 	 114 	 	 491 	 	 6 	 	 1753 	 	 1816 	 	 105 
  14 	 	 25 	 	 36 	 	 5 	 	 1094 	 	 1170 	 	 126 
  15 	 	 905 	 	 100 	 	 7 	 	 1131 	 	 1312 	 	 169 
  16 	 	 512 	 	 87 	 	 7 	 	 908 	 	 1076 	 	 117 
  17 	 	 190 	 	 755 	 	 10 	 	 776 	 	 874 	 	 200 
  18 	 	 405 	 	 578 	 	 8 	 	 486 	 	 553 	 	 185 
  19 	 	 131 	 	 490 	 	 7 	 	 1040 	 	 1098 	 	 133 
  20 	 	 194 	 	 919 	 	 9 	 	 2108 	 	 2203 	 	 166 
  21 	 	 575 	 	 521 	 	 6 	 	 1856 	 	 1946 	 	 170 
  22 	 	 867 	 	 442 	 	 10 	 	 1660 	 	 1748 	 	 173 
  23 	 	 954 	 	 908 	 	 6 	 	 829 	 	 953 	 	 172 
  24 	 	 690 	 	 34 	 	 9 	 	 1129 	 	 1223 	 	 151 
  25 	 	 455 	 	 147 	 	 10 	 	 2059 	 	 2164 	 	 193 
  26 	 	 567 	 	 885 	 	 8 	 	 772 	 	 848 	 	 116 
  27 	 	 560 	 	 896 	 	 5 	 	 991 	 	 1116 	 	 103 
  28 	 	 962 	 	 560 	 	 10 	 	 1393 	 	 1523 	 	 186 
  29 	 	 749 	 	 290 	 	 9 	 	 2120 	 	 2178 	 	 141 
  30 	 	 19 	 	 5 	 	 8 	 	 1835 	 	 1929 	 	 186 
  31 	 	 632 	 	 618 	 	 8 	 	 785 	 	 980 	 	 100 
  32 	 	 736 	 	 999 	 	 6 	 	 538 	 	 712 	 	 182 
  33 	 	 55 	 	 374 	 	 8 	 	 1635 	 	 1729 	 	 161 
  34 	 	 779 	 	 704 	 	 6 	 	 629 	 	 813 	 	 178 
  35 	 	 961 	 	 832 	 	 6 	 	 1860 	 	 1939 	 	 179 
  36 	 	 567 	 	 974 	 	 10 	 	 836 	 	 891 	 	 172 
  37 	 	 264 	 	 28 	 	 7 	 	 923 	 	 1053 	 	 153 
  38 	 	 822 	 	 357 	 	 9 	 	 1863 	 	 2023 	 	 179 
  39 	 	 261 	 	 83 	 	 10 	 	 1071 	 	 1242 	 	 185 
  40 	 	 500 	 	 781 	 	 9 	 	 1824 	 	 1933 	 	 159 
  41 	 	 308 	 	 302 	 	 6 	 	 2115 	 	 2263 	 	 107 
  42 	 	 97 	 	 203 	 	 8 	 	 965 	 	 1022 	 	 153 
  43 	 	 308 	 	 962 	 	 10 	 	 672 	 	 756 	 	 192 
  44 	 	 333 	 	 652 	 	 5 	 	 897 	 	 1039 	 	 173 
  45 	 	 975 	 	 381 	 	 9 	 	 1056 	 	 1170 	 	 143 
  46 	 	 736 	 	 431 	 	 5 	 	 733 	 	 926 	 	 175 
  47 	 	 234 	 	 166 	 	 9 	 	 1582 	 	 1635 	 	 127 
  48 	 	 886 	 	 367 	 	 6 	 	 917 	 	 1099 	 	 125 
  49 	 	 565 	 	 220 	 	 9 	 	 2003 	 	 2178 	 	 116 
  50 	 	 422 	 	 570 	 	 5 	 	 1443 	 	 1601 	 	 113 
  51 	 	 136 	 	 507 	 	 8 	 	 1279 	 	 1357 	 	 183 
  52 	 	 467 	 	 553 	 	 8 	 	 1017 	 	 1067 	 	 159 
  53 	 	 375 	 	 13 	 	 7 	 	 1266 	 	 1355 	 	 150 
  54 	 	 344 	 	 557 	 	 8 	 	 399 	 	 533 	 	 166 
  55 	 	 385 	 	 913 	 	 5 	 	 2180 	 	 2233 	 	 164 
  56 	 	 466 	 	 505 	 	 10 	 	 551 	 	 664 	 	 175 
  57 	 	 803 	 	 749 	 	 10 	 	 685 	 	 822 	 	 114 
  58 	 	 202 	 	 656 	 	 6 	 	 849 	 	 994 	 	 135 
  59 	 	 914 	 	 641 	 	 6 	 	 822 	 	 976 	 	 139 
  60 	 	 938 	 	 299 	 	 7 	 	 1671 	 	 1741 	 	 167 
  61 	 	 738 	 	 20 	 	 7 	 	 1140 	 	 1265 	 	 107 
  62 	 	 609 	 	 767 	 	 10 	 	 796 	 	 915 	 	 182 
  63 	 	 858 	 	 44 	 	 5 	 	 1872 	 	 1972 	 	 101 
  64 	 	 962 	 	 233 	 	 5 	 	 1816 	 	 1983 	 	 125 
  65 	 	 998 	 	 588 	 	 8 	 	 946 	 	 1084 	 	 166 
  66 	 	 46 	 	 960 	 	 7 	 	 589 	 	 670 	 	 128 
  67 	 	 284 	 	 924 	 	 10 	 	 939 	 	 1010 	 	 196 
  68 	 	 748 	 	 53 	 	 9 	 	 1813 	 	 1903 	 	 112 
  69 	 	 936 	 	 754 	 	 6 	 	 870 	 	 961 	 	 190 
  70 	 	 455 	 	 800 	 	 10 	 	 531 	 	 586 	 	 106 
  71 	 	 410 	 	 94 	 	 7 	 	 1527 	 	 1714 	 	 137 
  72 	 	 726 	 	 304 	 	 9 	 	 1489 	 	 1558 	 	 188 
  73 	 	 244 	 	 656 	 	 5 	 	 268 	 	 385 	 	 109 
  74 	 	 585 	 	 281 	 	 7 	 	 1738 	 	 1919 	 	 132 
  75 	 	 171 	 	 199 	 	 9 	 	 752 	 	 852 	 	 168 
  76 	 	 615 	 	 616 	 	 9 	 	 1708 	 	 1822 	 	 148 
  77 	 	 552 	 	 711 	 	 6 	 	 1082 	 	 1224 	 	 112 
  78 	 	 726 	 	 233 	 	 7 	 	 899 	 	 1071 	 	 153 
  79 	 	 405 	 	 631 	 	 7 	 	 2135 	 	 2276 	 	 173 
  80 	 	 477 	 	 766 	 	 10 	 	 1012 	 	 1169 	 	 130 
  81 	 	 540 	 	 378 	 	 9 	 	 725 	 	 818 	 	 121 
  82 	 	 720 	 	 149 	 	 5 	 	 1446 	 	 1545 	 	 126 
  83 	 	 437 	 	 927 	 	 10 	 	 308 	 	 385 	 	 199 
  84 	 	 958 	 	 335 	 	 6 	 	 1880 	 	 2026 	 	 148 
  85 	 	 941 	 	 178 	 	 9 	 	 1133 	 	 1279 	 	 175 
  86 	 	 379 	 	 954 	 	 6 	 	 565 	 	 725 	 	 114 
  87 	 	 805 	 	 114 	 	 8 	 	 1484 	 	 1632 	 	 108 
  88 	 	 575 	 	 401 	 	 6 	 	 2127 	 	 2222 	 	 108 
  89 	 	 710 	 	 754 	 	 8 	 	 624 	 	 723 	 	 121 
  90 	 	 388 	 	 279 	 	 6 	 	 2184 	 	 2270 	 	 171 
  91 	 	 558 	 	 349 	 	 7 	 	 1040 	 	 1128 	 	 115 
  92 	 	 353 	 	 726 	 	 6 	 	 668 	 	 733 	 	 132 
  93 	 	 185 	 	 140 	 	 6 	 	 729 	 	 919 	 	 101 
  94 	 	 542 	 	 539 	 	 8 	 	 498 	 	 687 	 	 137 
  95 	 	 343 	 	 837 	 	 6 	 	 2084 	 	 2220 	 	 123 
  96 	 	 503 	 	 617 	 	 8 	 	 752 	 	 930 	 	 183 
  97 	 	 49 	 	 445 	 	 6 	 	 1376 	 	 1561 	 	 190 
  98 	 	 851 	 	 257 	 	 5 	 	 2018 	 	 2157 	 	 173 
  99 	 	 107 	 	 239 	 	 5 	 	 1947 	 	 2070 	 	 176 
  100 	 	 920 	 	 54 	 	 8 	 	 2125 	 	 2276 	 	 191 
 